HUN,8,6,209
1,28,2,28,3,15,0,23,4,29,5,12
0,24,2,25,5,18,3,6,4,5,1,10
0,6,3,6,5,20,1,4,2,29,4,14
0,12,3,6,5,26,4,18,2,10,1,13
2,6,1,30,0,7,4,7,3,25,5,28
5,10,3,15,2,16,0,4,4,8,1,11
1,25,0,17,4,21,2,17,3,6,5,23
2,25,4,19,1,24,0,5,3,13,5,1
